g3 0 1 0	# problem lip
 60 83 1 0 14	# vars, constraints, objectives, ranges, eqns
 0 1	# nonlinear constraints, objectives
 0 0	# network constraints: nonlinear, linear
 0 48 0	# nonlinear vars in constraints, objectives, both
 0 0 0 1	# linear network variables; functions; arith, flags
 4 0 0 0 48	# discrete variables: binary, integer, nonlinear (b,c,o)
 280 60	# nonzeros in Jacobian, gradients
 3 3	# max name lengths: constraints, variables
 0 0 0 0 0	# common exprs: b,c,o,c1,o1
b
0 0 1
0 0 1
0 0 1
0 0 1
0 0 1
0 0 1
0 0 1
0 0 1
0 0 1
0 0 1
0 0 1
0 0 1
0 0 1
0 0 1
0 0 1
0 0 1
0 0 1
0 0 1
0 0 1
0 0 1
0 0 1
0 0 1
0 0 1
0 0 1
0 0 1
0 0 1
0 0 1
0 0 1
0 0 1
0 0 1
0 0 1
0 0 1
0 0 1
0 0 1
0 0 1
0 0 1
0 0 1
0 0 1
0 0 1
0 0 1
0 0 1
0 0 1
0 0 1
0 0 1
0 0 1
0 0 1
0 0 1
0 0 1
2 0
2 0
2 0
2 0
2 0
2 0
2 0
2 0
0 0 1
0 0 1
0 0 1
0 0 1
r
2 1
4 1
4 1
4 1
4 1
4 1
4 1
4 1
4 1
4 1
4 1
4 1
4 1
1 0
1 0
1 0
1 0
1 0
1 0
1 0
1 0
1 0
1 0
1 0
1 0
1 0
1 0
1 0
1 0
1 0
1 0
1 0
1 0
1 0
1 0
1 0
1 0
1 0
1 0
1 0
1 0
1 0
1 0
1 0
1 0
1 0
1 0
1 0
1 0
1 0
1 0
1 0
1 0
1 0
1 0
1 0
1 0
1 0
1 0
1 0
1 0
2 0
2 0
2 0
2 0
2 0
2 0
2 0
2 0
1 0
1 0
1 0
1 0
4 6e3
4 4.8e3
2 0
2 0
2 0
2 0
2 0
2 0
2 0
2 0
C0
n0
C1
n0
C2
n0
C3
n0
C4
n0
C5
n0
C6
n0
C7
n0
C8
n0
C9
n0
C10
n0
C11
n0
C12
n0
C13
n0
C14
n0
C15
n0
C16
n0
C17
n0
C18
n0
C19
n0
C20
n0
C21
n0
C22
n0
C23
n0
C24
n0
C25
n0
C26
n0
C27
n0
C28
n0
C29
n0
C30
n0
C31
n0
C32
n0
C33
n0
C34
n0
C35
n0
C36
n0
C37
n0
C38
n0
C39
n0
C40
n0
C41
n0
C42
n0
C43
n0
C44
n0
C45
n0
C46
n0
C47
n0
C48
n0
C49
n0
C50
n0
C51
n0
C52
n0
C53
n0
C54
n0
C55
n0
C56
n0
C57
n0
C58
n0
C59
n0
C60
n0
C61
n0
C62
n0
C63
n0
C64
n0
C65
n0
C66
n0
C67
n0
C68
n0
C69
n0
C70
n0
C71
n0
C72
n0
C73
n0
C74
n0
C75
n0
C76
n0
C77
n0
C78
n0
C79
n0
C80
n0
C81
n0
C82
n0
O0 1
o16
o54
145
o2
n39.2
o54
4
o5
o54
12
o2
n25
v0
o2
n25
v1
o2
n25
v8
o2
n25
v9
o2
n25
v16
o2
n25
v17
o2
n25
v24
o2
n25
v25
o2
n25
v32
o2
n25
v33
o2
n25
v40
o2
n25
v41
n.5
o5
o54
12
o2
n25
v2
o2
n25
v3
o2
n25
v10
o2
n25
v11
o2
n25
v18
o2
n25
v19
o2
n25
v26
o2
n25
v27
o2
n25
v34
o2
n25
v35
o2
n25
v42
o2
n25
v43
n.5
o5
o54
12
o2
n25
v4
o2
n25
v5
o2
n25
v12
o2
n25
v13
o2
n25
v20
o2
n25
v21
o2
n25
v28
o2
n25
v29
o2
n25
v36
o2
n25
v37
o2
n25
v44
o2
n25
v45
n.5
o5
o54
12
o2
n25
v6
o2
n25
v7
o2
n25
v14
o2
n25
v15
o2
n25
v22
o2
n25
v23
o2
n25
v30
o2
n25
v31
o2
n25
v38
o2
n25
v39
o2
n25
v46
o2
n25
v47
n.5
o2
n-3e5
v0
o2
n-8e5
v1
o2
n-3e5
v2
o2
n-8e5
v3
o2
n-3e5
v4
o2
n-8e5
v5
o2
n-3e5
v6
o2
n-8e5
v7
o2
n-3e5
v8
o2
n-8e5
v9
o2
n-3e5
v10
o2
n-8e5
v11
o2
n-3e5
v12
o2
n-8e5
v13
o2
n-3e5
v14
o2
n-8e5
v15
o2
n-3e5
v16
o2
n-8e5
v17
o2
n-3e5
v18
o2
n-8e5
v19
o2
n-3e5
v20
o2
n-8e5
v21
o2
n-3e5
v22
o2
n-8e5
v23
o2
n-3e5
v24
o2
n-8e5
v25
o2
n-3e5
v26
o2
n-8e5
v27
o2
n-3e5
v28
o2
n-8e5
v29
o2
n-3e5
v30
o2
n-8e5
v31
o2
n-3e5
v32
o2
n-8e5
v33
o2
n-3e5
v34
o2
n-8e5
v35
o2
n-3e5
v36
o2
n-8e5
v37
o2
n-3e5
v38
o2
n-8e5
v39
o2
n-3e5
v40
o2
n-8e5
v41
o2
n-3e5
v42
o2
n-8e5
v43
o2
n-3e5
v44
o2
n-8e5
v45
o2
n-3e5
v46
o2
n-8e5
v47
o2
n1e5
v0
o2
n1e5
v8
o2
n1e5
v16
o2
n1e5
v24
o2
n1e5
v32
o2
n1e5
v40
o2
n4e5
v1
o2
n4e5
v9
o2
n4e5
v17
o2
n4e5
v25
o2
n4e5
v33
o2
n4e5
v41
o2
n1e5
v2
o2
n1e5
v10
o2
n1e5
v18
o2
n1e5
v26
o2
n1e5
v34
o2
n1e5
v42
o2
n4e5
v3
o2
n4e5
v11
o2
n4e5
v19
o2
n4e5
v27
o2
n4e5
v35
o2
n4e5
v43
o2
n1e5
v4
o2
n1e5
v12
o2
n1e5
v20
o2
n1e5
v28
o2
n1e5
v36
o2
n1e5
v44
o2
n4e5
v5
o2
n4e5
v13
o2
n4e5
v21
o2
n4e5
v29
o2
n4e5
v37
o2
n4e5
v45
o2
n1e5
v6
o2
n1e5
v14
o2
n1e5
v22
o2
n1e5
v30
o2
n1e5
v38
o2
n1e5
v46
o2
n4e5
v7
o2
n4e5
v15
o2
n4e5
v23
o2
n4e5
v31
o2
n4e5
v39
o2
n4e5
v47
o2
n4e3
v0
o2
n3.2e3
v1
o2
n8e3
v8
o2
n6.4e3
v9
o2
n8e3
v16
o2
n6.4e3
v17
o2
n1.6e4
v24
o2
n1.28e4
v25
o2
n1.6e4
v32
o2
n1.28e4
v33
o2
n3.2e4
v40
o2
n2.56e4
v41
o2
n8e3
v2
o2
n6.4e3
v3
o2
n4e3
v10
o2
n3.2e3
v11
o2
n1.6e4
v18
o2
n1.28e4
v19
o2
n2.4e4
v26
o2
n1.92e4
v27
o2
n8e3
v34
o2
n6.4e3
v35
o2
n2.4e4
v42
o2
n1.92e4
v43
o2
n1.6e4
v4
o2
n1.28e4
v5
o2
n2.4e4
v12
o2
n1.92e4
v13
o2
n4e3
v20
o2
n3.2e3
v21
o2
n4e3
v28
o2
n3.2e3
v29
o2
n1.6e4
v36
o2
n1.28e4
v37
o2
n1.6e4
v44
o2
n1.28e4
v45
o2
n2e5
v6
o2
n1.6e5
v7
o2
n2e5
v14
o2
n1.6e5
v15
o2
n1.5e5
v22
o2
n1.2e5
v23
o2
n5e4
v30
o2
n4e4
v31
o2
n1e5
v38
o2
n8e4
v39
o2
n2.5e4
v46
o2
n2e4
v47
k59
4
8
12
16
20
24
28
32
36
40
44
48
52
56
60
64
68
72
76
80
84
88
92
96
100
104
108
112
116
120
124
128
132
136
140
144
148
152
156
160
164
168
172
176
180
184
188
192
195
198
201
204
207
210
213
216
232
248
264
J0 4
56 1
57 1
58 1
59 1
J1 4
0 1
2 1
4 1
6 1
J2 4
1 1
3 1
5 1
7 1
J3 4
8 1
10 1
12 1
14 1
J4 4
9 1
11 1
13 1
15 1
J5 4
16 1
18 1
20 1
22 1
J6 4
17 1
19 1
21 1
23 1
J7 4
24 1
26 1
28 1
30 1
J8 4
25 1
27 1
29 1
31 1
J9 4
32 1
34 1
36 1
38 1
J10 4
33 1
35 1
37 1
39 1
J11 4
40 1
42 1
44 1
46 1
J12 4
41 1
43 1
45 1
47 1
J13 2
0 1
56 -1
J14 2
1 1
56 -1
J15 2
2 1
57 -1
J16 2
3 1
57 -1
J17 2
4 1
58 -1
J18 2
5 1
58 -1
J19 2
6 1
59 -1
J20 2
7 1
59 -1
J21 2
8 1
56 -1
J22 2
9 1
56 -1
J23 2
10 1
57 -1
J24 2
11 1
57 -1
J25 2
12 1
58 -1
J26 2
13 1
58 -1
J27 2
14 1
59 -1
J28 2
15 1
59 -1
J29 2
16 1
56 -1
J30 2
17 1
56 -1
J31 2
18 1
57 -1
J32 2
19 1
57 -1
J33 2
20 1
58 -1
J34 2
21 1
58 -1
J35 2
22 1
59 -1
J36 2
23 1
59 -1
J37 2
24 1
56 -1
J38 2
25 1
56 -1
J39 2
26 1
57 -1
J40 2
27 1
57 -1
J41 2
28 1
58 -1
J42 2
29 1
58 -1
J43 2
30 1
59 -1
J44 2
31 1
59 -1
J45 2
32 1
56 -1
J46 2
33 1
56 -1
J47 2
34 1
57 -1
J48 2
35 1
57 -1
J49 2
36 1
58 -1
J50 2
37 1
58 -1
J51 2
38 1
59 -1
J52 2
39 1
59 -1
J53 2
40 1
56 -1
J54 2
41 1
56 -1
J55 2
42 1
57 -1
J56 2
43 1
57 -1
J57 2
44 1
58 -1
J58 2
45 1
58 -1
J59 2
46 1
59 -1
J60 2
47 1
59 -1
J61 7
0 1
8 1
16 1
24 1
32 1
40 1
56 -1
J62 7
1 1
9 1
17 1
25 1
33 1
41 1
56 -1
J63 7
2 1
10 1
18 1
26 1
34 1
42 1
57 -1
J64 7
3 1
11 1
19 1
27 1
35 1
43 1
57 -1
J65 7
4 1
12 1
20 1
28 1
36 1
44 1
58 -1
J66 7
5 1
13 1
21 1
29 1
37 1
45 1
58 -1
J67 7
6 1
14 1
22 1
30 1
38 1
46 1
59 -1
J68 7
7 1
15 1
23 1
31 1
39 1
47 1
59 -1
J69 3
48 1
49 1
56 -5e3
J70 3
50 1
51 1
57 -3e3
J71 3
52 1
53 1
58 -3e3
J72 3
54 1
55 1
59 -2e3
J73 4
48 1
50 1
52 1
54 1
J74 4
49 1
51 1
53 1
55 1
J75 7
0 -1e3
8 -1e3
16 -1e3
24 -1e3
32 -1e3
40 -1e3
48 1
J76 7
1 -800
9 -800
17 -800
25 -800
33 -800
41 -800
49 1
J77 7
2 -1e3
10 -1e3
18 -1e3
26 -1e3
34 -1e3
42 -1e3
50 1
J78 7
3 -800
11 -800
19 -800
27 -800
35 -800
43 -800
51 1
J79 7
4 -1e3
12 -1e3
20 -1e3
28 -1e3
36 -1e3
44 -1e3
52 1
J80 7
5 -800
13 -800
21 -800
29 -800
37 -800
45 -800
53 1
J81 7
6 -1e3
14 -1e3
22 -1e3
30 -1e3
38 -1e3
46 -1e3
54 1
J82 7
7 -800
15 -800
23 -800
31 -800
39 -800
47 -800
55 1
G0 60
0 0
1 0
2 0
3 0
4 0
5 0
6 0
7 0
8 0
9 0
10 0
11 0
12 0
13 0
14 0
15 0
16 0
17 0
18 0
19 0
20 0
21 0
22 0
23 0
24 0
25 0
26 0
27 0
28 0
29 0
30 0
31 0
32 0
33 0
34 0
35 0
36 0
37 0
38 0
39 0
40 0
41 0
42 0
43 0
44 0
45 0
46 0
47 0
48 55
49 455
50 50
51 4.5e2
52 55
53 455
54 55
55 455
56 -8e4
57 -8e4
58 -8e4
59 -8e4
